17,2	0,0	12,6	8,0	0,0	0,0	0,0	0,0	0,0	14,0
8,2	5,5	0,0	7,5	14,7	0,0	0,0	10,4	0,0	0,0
0,0	0,0	11,5	0,0	9,4	20,0	0,0	0,0	12,8	0,0
18,8	0,0	13,7	0,0	0,0	0,0	8,2	0,0	0,0	0,0
0,0	17,4	0,0	13,2	19,0	0,0	0,0	11,1	0,0	0,0
0,0	8,8	7,5	0,0	8,0	11,2	0,0	0,0	18,0	0,0
0,0	11,4	0,0	9,3	0,0	0,0	16,7	0,0	0,0	11,5
9,4	0,0	7,5	0,0	0,0	0,0	0,0	0,0	0,0	11,5
0,0	9,5	0,0	8,9	14,6	0,0	0,0	16,8	0,0	0,0
0,0	0,0	10,5	0,0	0,0	5,8	12,6	0,0	0,0	16,5
									
3,8	2,7	3,5	5,0	4,3	3,5	3,4	4,2	4,0	4,4
